# Solution for model HELLO
# Objective value = 8940572
XXXXXXX0 0
XXXXXXX1 1
XXXXXXX2 1
XXXXXXX3 1
XXXXXXX4 1
XXXXXXX5 1
XXXXXXX6 0
XXXXXXX7 1
XXXXXXX8 0
XXXXXXX9 1
XXXXXX10 0
XXXXXX11 0
XXXXXX12 1
XXXXXX13 1
XXXXXX14 0
XXXXXX15 1
XXXXXX16 1
XXXXXX17 1
XXXXXX18 1
XXXXXX19 0
XXXXXX20 1
XXXXXX21 0
XXXXXX22 0
XXXXXX23 1
XXXXXX24 1
XXXXXX25 1
XXXXXX26 1
XXXXXX27 0
XXXXXX28 0
XXXXXX29 0
XXXXXX30 1
XXXXXX31 1
XXXXXX32 1
XXXXXX33 1
XXXXXX34 0
XXXXXX35 1
XXXXXX36 1
XXXXXX37 1
XXXXXX38 0
XXXXXX39 1
XXXXXX40 0
XXXXXX41 1
XXXXXX42 1
XXXXXX43 1
XXXXXX44 0
XXXXXX45 0
XXXXXX46 1
XXXXXX47 0
XXXXXX48 1
XXXXXX49 1
XXXXXX50 0
XXXXXX51 1
XXXXXX52 0
XXXXXX53 0
XXXXXX54 1
XXXXXX55 1
XXXXXX56 0
XXXXXX57 0
XXXXXX58 1
XXXXXX59 1
XXXXXX60 0
XXXXXX61 1
XXXXXX62 0
XXXXXX63 1
XXXXXX64 1
XXXXXX65 1
XXXXXX66 1
XXXXXX67 1
XXXXXX68 1
XXXXXX69 0
XXXXXX70 1
XXXXXX71 0
XXXXXX72 1
XXXXXX73 0
XXXXXX74 1
XXXXXX75 1
XXXXXX76 1
XXXXXX77 0
XXXXXX78 1
XXXXXX79 1
XXXXXX80 0
XXXXXX81 1
XXXXXX82 1
XXXXXX83 1
XXXXXX84 0
XXXXXX85 1
XXXXXX86 0
XXXXXX87 1
XXXXXX88 1
XXXXXX89 0
XXXXXX90 1
XXXXXX91 0
XXXXXX92 1
XXXXXX93 1
XXXXXX94 1
XXXXXX95 0
XXXXXX96 0
XXXXXX97 0
XXXXXX98 1
XXXXXX99 0
XXXXX100 0
XXXXX101 0
XXXXX102 1
XXXXX103 1
XXXXX104 1
XXXXX105 1
XXXXX106 1
XXXXX107 1
XXXXX108 1
XXXXX109 1
XXXXX110 1
XXXXX111 1
XXXXX112 0
XXXXX113 1
XXXXX114 0
XXXXX115 1
XXXXX116 1
XXXXX117 1
XXXXX118 1
XXXXX119 1
XXXXX120 1
XXXXX121 1
XXXXX122 1
XXXXX123 1
XXXXX124 1
XXXXX125 0
XXXXX126 1
XXXXX127 0
XXXXX128 1
XXXXX129 1
XXXXX130 0
XXXXX131 0
XXXXX132 0
XXXXX133 1
XXXXX134 0
XXXXX135 0
XXXXX136 0
XXXXX137 0
XXXXX138 0
XXXXX139 1
XXXXX140 1
XXXXX141 0
XXXXX142 1
XXXXX143 1
XXXXX144 1
XXXXX145 1
XXXXX146 0
XXXXX147 1
XXXXX148 1
XXXXX149 0
XXXXX150 0
XXXXX151 0
XXXXX152 1
XXXXX153 1
XXXXX154 0
XXXXX155 1
XXXXX156 0
XXXXX157 1
XXXXX158 0
XXXXX159 0
XXXXX160 1
XXXXX161 0
XXXXX162 1
XXXXX163 1
XXXXX164 0
XXXXX165 0
XXXXX166 1
XXXXX167 1
XXXXX168 0
XXXXX169 0
XXXXX170 0
XXXXX171 0
XXXXX172 0
XXXXX173 1
XXXXX174 1
XXXXX175 1
XXXXX176 1
XXXXX177 1
XXXXX178 1
XXXXX179 1
XXXXX180 1
XXXXX181 1
XXXXX182 0
XXXXX183 1
XXXXX184 1
XXXXX185 1
XXXXX186 1
XXXXX187 0
XXXXX188 1
XXXXX189 1
XXXXX190 1
XXXXX191 1
XXXXX192 1
XXXXX193 0
XXXXX194 0
XXXXX195 1
XXXXX196 1
XXXXX197 0
XXXXX198 1
XXXXX199 0
XXXXX200 1
XXXXX201 0
XXXXX202 0
XXXXX203 1
XXXXX204 0
XXXXX205 1
XXXXX206 1
XXXXX207 1
XXXXX208 0
XXXXX209 0
XXXXX210 0
XXXXX211 0
XXXXX212 0
XXXXX213 0
XXXXX214 1
XXXXX215 1
XXXXX216 1
XXXXX217 0
XXXXX218 0
XXXXX219 0
XXXXX220 1
XXXXX221 1
XXXXX222 0
XXXXX223 1
XXXXX224 1
XXXXX225 0
XXXXX226 1
XXXXX227 1
XXXXX228 1
XXXXX229 1
XXXXX230 0
XXXXX231 0
XXXXX232 0
XXXXX233 0
XXXXX234 1
XXXXX235 0
XXXXX236 0
XXXXX237 1
XXXXX238 1
XXXXX239 1
XXXXX240 1
XXXXX241 0
XXXXX242 0
XXXXX243 0
XXXXX244 0
XXXXX245 1
XXXXX246 1
XXXXX247 0
XXXXX248 1
XXXXX249 0
XXXXX250 1
XXXXX251 1
XXXXX252 1
XXXXX253 0
XXXXX254 1
XXXXX255 1
XXXXX256 0
XXXXX257 1
XXXXX258 1
XXXXX259 1
XXXXX260 1
XXXXX261 0
XXXXX262 1
XXXXX263 1
XXXXX264 0
XXXXX265 0
XXXXX266 1
XXXXX267 1
XXXXX268 1
XXXXX269 1
XXXXX270 0
XXXXX271 0
XXXXX272 0
XXXXX273 1
XXXXX274 0
XXXXX275 1
XXXXX276 1
XXXXX277 0
XXXXX278 1
XXXXX279 1
XXXXX280 1
XXXXX281 0
XXXXX282 1
XXXXX283 0
XXXXX284 0
XXXXX285 1
XXXXX286 1
XXXXX287 1
XXXXX288 0
XXXXX289 1
XXXXX290 1
XXXXX291 0
XXXXX292 0
XXXXX293 0
XXXXX294 0
XXXXX295 0
XXXXX296 0
XXXXX297 1
XXXXX298 1
XXXXX299 1
XXXXX300 1
XXXXX301 0
XXXXX302 1
XXXXX303 0
XXXXX304 1
XXXXX305 0
XXXXX306 0
XXXXX307 0
XXXXX308 1
XXXXX309 1
XXXXX310 1
XXXXX311 0
XXXXX312 1
XXXXX313 1
XXXXX314 1
XXXXX315 1
XXXXX316 0
XXXXX317 1
XXXXX318 1
XXXXX319 1
XXXXX320 1
XXXXX321 1
XXXXX322 0
XXXXX323 1
XXXXX324 1
XXXXX325 0
XXXXX326 1
XXXXX327 1
XXXXX328 0
XXXXX329 0
XXXXX330 1
XXXXX331 1
XXXXX332 1
XXXXX333 1
XXXXX334 0
XXXXX335 0
XXXXX336 1
XXXXX337 0
XXXXX338 1
XXXXX339 1
XXXXX340 0
XXXXX341 0
XXXXX342 1
XXXXX343 1
XXXXX344 1
XXXXX345 1
XXXXX346 1
XXXXX347 1
XXXXX348 1
XXXXX349 1
XXXXX350 1
XXXXX351 0
XXXXX352 1
XXXXX353 1
XXXXX354 0
XXXXX355 1
XXXXX356 1
XXXXX357 1
XXXXX358 0
XXXXX359 1
XXXXX360 0
XXXXX361 1
XXXXX362 0
XXXXX363 0
XXXXX364 1
XXXXX365 1
XXXXX366 0
XXXXX367 1
XXXXX368 0
XXXXX369 0
XXXXX370 0
XXXXX371 0
XXXXX372 0
XXXXX373 0
XXXXX374 1
XXXXX375 1
XXXXX376 0
XXXXX377 0
XXXXX378 1
XXXXX379 1
XXXXX380 0
XXXXX381 1
XXXXX382 1
XXXXX383 0
XXXXX384 0
XXXXX385 1
XXXXX386 0
XXXXX387 1
XXXXX388 1
XXXXX389 0
XXXXX390 1
XXXXX391 0
XXXXX392 1
XXXXX393 1
XXXXX394 1
XXXXX395 1
XXXXX396 1
XXXXX397 1
XXXXX398 0
XXXXX399 0
XXXXX400 0
XXXXX401 0
XXXXX402 1
XXXXX403 0
XXXXX404 0
XXXXX405 1
XXXXX406 1
XXXXX407 1
XXXXX408 1
XXXXX409 1
XXXXX410 1
XXXXX411 1
XXXXX412 1
XXXXX413 1
XXXXX414 0
XXXXX415 1
XXXXX416 1
XXXXX417 0
XXXXX418 1
XXXXX419 1
XXXXX420 0
XXXXX421 0
XXXXX422 1
XXXXX423 0
XXXXX424 0
XXXXX425 1
XXXXX426 1
XXXXX427 1
XXXXX428 1
XXXXX429 1
XXXXX430 0
XXXXX431 1
XXXXX432 1
XXXXX433 0
XXXXX434 1
XXXXX435 1
XXXXX436 1
XXXXX437 0
XXXXX438 1
XXXXX439 0
XXXXX440 0
XXXXX441 0
XXXXX442 0
XXXXX443 1
XXXXX444 1
XXXXX445 1
XXXXX446 0
XXXXX447 1
XXXXX448 1
XXXXX449 1
XXXXX450 0
XXXXX451 1
XXXXX452 0
XXXXX453 0
XXXXX454 0
XXXXX455 0
XXXXX456 0
XXXXX457 1
XXXXX458 1
XXXXX459 0
XXXXX460 1
XXXXX461 0
XXXXX462 1
XXXXX463 1
XXXXX464 1
XXXXX465 1
XXXXX466 0
XXXXX467 1
XXXXX468 0
XXXXX469 1
XXXXX470 1
XXXXX471 0
XXXXX472 1
XXXXX473 0
XXXXX474 1
XXXXX475 1
XXXXX476 0
XXXXX477 0
XXXXX478 1
XXXXX479 1
XXXXX480 0
XXXXX481 0
XXXXX482 0
XXXXX483 1
XXXXX484 0
XXXXX485 1
XXXXX486 1
XXXXX487 1
XXXXX488 0
XXXXX489 1
XXXXX490 1
XXXXX491 1
XXXXX492 1
XXXXX493 0
XXXXX494 1
XXXXX495 1
XXXXX496 0
XXXXX497 1
XXXXX498 1
XXXXX499 1
XXXXX500 1
XXXXX501 0
XXXXX502 1
XXXXX503 0
XXXXX504 1
XXXXX505 1
XXXXX506 1
XXXXX507 1
XXXXX508 1
XXXXX509 0
XXXXX510 1
XXXXX511 1
XXXXX512 1
XXXXX513 0
XXXXX514 1
XXXXX515 0
XXXXX516 1
XXXXX517 1
XXXXX518 0
XXXXX519 1
XXXXX520 1
XXXXX521 1
XXXXX522 0
XXXXX523 1
XXXXX524 1
XXXXX525 0
XXXXX526 0
XXXXX527 0
XXXXX528 0
XXXXX529 1
XXXXX530 0
XXXXX531 0
XXXXX532 0
XXXXX533 0
XXXXX534 1
XXXXX535 0
XXXXX536 1
XXXXX537 1
XXXXX538 1
XXXXX539 0
XXXXX540 1
XXXXX541 1
XXXXX542 1
XXXXX543 1
XXXXX544 1
XXXXX545 0
XXXXX546 0
XXXXX547 0
XXXXX548 1
XXXXX549 0
XXXXX550 0
XXXXX551 0
XXXXX552 1
XXXXX553 0
XXXXX554 0
XXXXX555 0
XXXXX556 1
XXXXX557 1
XXXXX558 1
XXXXX559 1
XXXXX560 1
XXXXX561 1
XXXXX562 1
XXXXX563 1
XXXXX564 1
XXXXX565 1
XXXXX566 1
XXXXX567 0
XXXXX568 1
XXXXX569 0
XXXXX570 1
XXXXX571 0
XXXXX572 1
XXXXX573 1
XXXXX574 1
XXXXX575 1
XXXXX576 1
XXXXX577 0
XXXXX578 1
XXXXX579 1
XXXXX580 1
XXXXX581 1
XXXXX582 0
XXXXX583 0
XXXXX584 1
XXXXX585 0
XXXXX586 0
XXXXX587 1
XXXXX588 1
XXXXX589 0
XXXXX590 0
XXXXX591 1
XXXXX592 1
XXXXX593 1
XXXXX594 1
XXXXX595 1
XXXXX596 0
XXXXX597 0
XXXXX598 0
XXXXX599 1
XXXXX600 0
XXXXX601 0
XXXXX602 1
XXXXX603 1
XXXXX604 0
XXXXX605 0
XXXXX606 1
XXXXX607 0
XXXXX608 0
XXXXX609 0
XXXXX610 0
XXXXX611 1
XXXXX612 0
XXXXX613 1
XXXXX614 0
XXXXX615 1
XXXXX616 1
XXXXX617 1
XXXXX618 1
XXXXX619 1
XXXXX620 1
XXXXX621 1
XXXXX622 1
XXXXX623 0
XXXXX624 0
XXXXX625 0
XXXXX626 0
XXXXX627 0
XXXXX628 0
XXXXX629 0
XXXXX630 0
XXXXX631 0
XXXXX632 1
XXXXX633 0
XXXXX634 0
XXXXX635 0
XXXXX636 0
XXXXX637 1
XXXXX638 1
XXXXX639 1
XXXXX640 0
XXXXX641 0
XXXXX642 1
XXXXX643 1
XXXXX644 0
XXXXX645 1
XXXXX646 1
XXXXX647 0
XXXXX648 0
XXXXX649 0
XXXXX650 1
XXXXX651 0
XXXXX652 0
XXXXX653 1
XXXXX654 0
XXXXX655 1
XXXXX656 1
XXXXX657 1
XXXXX658 1
XXXXX659 1
XXXXX660 1
XXXXX661 0
XXXXX662 1
XXXXX663 0
XXXXX664 0
XXXXX665 0
XXXXX666 1
XXXXX667 1
XXXXX668 0
XXXXX669 0
XXXXX670 0
XXXXX671 1
XXXXX672 1
XXXXX673 1
XXXXX674 0
XXXXX675 1
XXXXX676 0
XXXXX677 1
XXXXX678 0
XXXXX679 1
XXXXX680 1
XXXXX681 1
XXXXX682 0
XXXXX683 1
XXXXX684 1
XXXXX685 0
XXXXX686 1
XXXXX687 1
XXXXX688 0
XXXXX689 1
XXXXX690 1
XXXXX691 1
XXXXX692 0
XXXXX693 0
XXXXX694 0
XXXXX695 0
XXXXX696 1
XXXXX697 0
XXXXX698 1
XXXXX699 0
XXXXX700 1
XXXXX701 0
XXXXX702 1
XXXXX703 1
XXXXX704 1
XXXXX705 0
XXXXX706 1
XXXXX707 0
XXXXX708 0
XXXXX709 1
XXXXX710 0
XXXXX711 0
XXXXX712 1
XXXXX713 0
XXXXX714 0
XXXXX715 1
XXXXX716 0
XXXXX717 1
XXXXX718 1
XXXXX719 0
XXXXX720 1
XXXXX721 1
XXXXX722 0
XXXXX723 0
XXXXX724 0
XXXXX725 1
XXXXX726 0
XXXXX727 1
XXXXX728 1
XXXXX729 0
XXXXX730 1
XXXXX731 0
XXXXX732 0
XXXXX733 1
XXXXX734 1
XXXXX735 1
XXXXX736 1
XXXXX737 1
XXXXX738 0
XXXXX739 1
XXXXX740 0
XXXXX741 1
XXXXX742 0
XXXXX743 1
XXXXX744 1
XXXXX745 1
XXXXX746 1
XXXXX747 1
XXXXX748 1
XXXXX749 1
XXXXX750 0
XXXXX751 0
XXXXX752 1
XXXXX753 1
XXXXX754 1
XXXXX755 1
XXXXX756 1
XXXXX757 0
XXXXX758 0
XXXXX759 1
XXXXX760 1
XXXXX761 1
XXXXX762 1
XXXXX763 1
XXXXX764 1
XXXXX765 0
XXXXX766 0
XXXXX767 1
XXXXX768 0
XXXXX769 1
XXXXX770 1
XXXXX771 1
XXXXX772 0
XXXXX773 1
XXXXX774 1
XXXXX775 1
XXXXX776 0
XXXXX777 0
XXXXX778 0
XXXXX779 1
XXXXX780 0
XXXXX781 1
XXXXX782 0
XXXXX783 1
XXXXX784 1
XXXXX785 1
XXXXX786 1
XXXXX787 0
XXXXX788 1
XXXXX789 1
XXXXX790 1
XXXXX791 0
XXXXX792 1
XXXXX793 1
XXXXX794 1
XXXXX795 1
XXXXX796 1
XXXXX797 1
XXXXX798 1
XXXXX799 1
XXXXX800 0
XXXXX801 0
XXXXX802 1
XXXXX803 0
XXXXX804 1
XXXXX805 0
XXXXX806 0
XXXXX807 1
XXXXX808 1
XXXXX809 0
XXXXX810 1
XXXXX811 0
XXXXX812 1
XXXXX813 0
XXXXX814 0
XXXXX815 0
XXXXX816 1
XXXXX817 0
XXXXX818 0
XXXXX819 0
XXXXX820 1
XXXXX821 1
XXXXX822 1
XXXXX823 1
XXXXX824 0
XXXXX825 1
XXXXX826 0
XXXXX827 1
XXXXX828 0
XXXXX829 0
XXXXX830 1
XXXXX831 1
XXXXX832 1
XXXXX833 0
XXXXX834 1
XXXXX835 1
XXXXX836 0
XXXXX837 1
XXXXX838 1
XXXXX839 0
XXXXX840 0
XXXXX841 1
XXXXX842 1
XXXXX843 1
XXXXX844 1
XXXXX845 0
XXXXX846 0
XXXXX847 1
XXXXX848 1
XXXXX849 0
XXXXX850 0
XXXXX851 1
XXXXX852 0
XXXXX853 0
XXXXX854 0
XXXXX855 0
XXXXX856 1
XXXXX857 0
XXXXX858 1
XXXXX859 0
XXXXX860 1
XXXXX861 0
XXXXX862 0
XXXXX863 0
XXXXX864 0
XXXXX865 1
XXXXX866 0
XXXXX867 1
XXXXX868 1
XXXXX869 1
XXXXX870 0
XXXXX871 1
XXXXX872 0
XXXXX873 0
XXXXX874 0
XXXXX875 1
XXXXX876 1
XXXXX877 1
XXXXX878 0
XXXXX879 1
XXXXX880 0
XXXXX881 0
XXXXX882 0
XXXXX883 1
XXXXX884 1
XXXXX885 1
XXXXX886 0
XXXXX887 1
XXXXX888 1
XXXXX889 1
XXXXX890 0
XXXXX891 1
XXXXX892 1
XXXXX893 0
XXXXX894 0
XXXXX895 1
XXXXX896 1
XXXXX897 1
XXXXX898 0
XXXXX899 0
XXXXX900 0
XXXXX901 1
XXXXX902 1
XXXXX903 1
XXXXX904 0
XXXXX905 0
XXXXX906 1
XXXXX907 0
XXXXX908 1
XXXXX909 1
XXXXX910 1
XXXXX911 1
XXXXX912 0
XXXXX913 1
XXXXX914 1
XXXXX915 0
XXXXX916 0
XXXXX917 1
XXXXX918 1
XXXXX919 1
XXXXX920 1
XXXXX921 0
XXXXX922 1
XXXXX923 1
XXXXX924 0
XXXXX925 0
XXXXX926 0
XXXXX927 1
XXXXX928 0
XXXXX929 1
XXXXX930 0
XXXXX931 0
XXXXX932 1
XXXXX933 0
XXXXX934 1
XXXXX935 1
XXXXX936 1
XXXXX937 0
XXXXX938 1
XXXXX939 1
XXXXX940 1
XXXXX941 0
XXXXX942 0
XXXXX943 1
XXXXX944 0
XXXXX945 0
XXXXX946 0
XXXXX947 1
XXXXX948 1
XXXXX949 0
XXXXX950 1
XXXXX951 1
XXXXX952 1
XXXXX953 0
XXXXX954 1
XXXXX955 0
XXXXX956 1
XXXXX957 1
XXXXX958 0
XXXXX959 1
XXXXX960 1
XXXXX961 0
XXXXX962 0
XXXXX963 0
XXXXX964 1
XXXXX965 1
XXXXX966 1
XXXXX967 1
XXXXX968 1
XXXXX969 0
XXXXX970 1
XXXXX971 0
XXXXX972 1
XXXXX973 0
XXXXX974 1
XXXXX975 1
XXXXX976 0
XXXXX977 1
XXXXX978 1
XXXXX979 1
XXXXX980 1
XXXXX981 0
XXXXX982 1
XXXXX983 1
XXXXX984 1
XXXXX985 1
XXXXX986 1
XXXXX987 0
XXXXX988 1
XXXXX989 0
XXXXX990 0
XXXXX991 0
XXXXX992 1
XXXXX993 0
XXXXX994 1
XXXXX995 0
XXXXX996 0
XXXXX997 0
XXXXX998 1
XXXXX999 1
XXXX1000 0
XXXX1001 1
XXXX1002 1
XXXX1003 1
XXXX1004 1
XXXX1005 1
XXXX1006 0
XXXX1007 0
XXXX1008 0
XXXX1009 1
XXXX1010 1
XXXX1011 1
XXXX1012 1
XXXX1013 0
XXXX1014 1
XXXX1015 1
XXXX1016 1
XXXX1017 1
XXXX1018 1
XXXX1019 0
XXXX1020 1
XXXX1021 1
XXXX1022 1
XXXX1023 1
XXXX1024 1
XXXX1025 1
XXXX1026 0
XXXX1027 1
XXXX1028 1
XXXX1029 1
XXXX1030 0
XXXX1031 1
XXXX1032 1
XXXX1033 1
XXXX1034 0
XXXX1035 0
XXXX1036 0
XXXX1037 1
XXXX1038 1
XXXX1039 1
XXXX1040 1
XXXX1041 1
XXXX1042 1
XXXX1043 1
XXXX1044 1
XXXX1045 0
XXXX1046 1
XXXX1047 1
XXXX1048 1
XXXX1049 1
XXXX1050 1
XXXX1051 1
XXXX1052 1
XXXX1053 1
XXXX1054 1
XXXX1055 0
XXXX1056 1
XXXX1057 1
XXXX1058 0
XXXX1059 0
XXXX1060 1
XXXX1061 1
XXXX1062 1
XXXX1063 1
XXXX1064 1
XXXX1065 1
XXXX1066 0
XXXX1067 0
XXXX1068 1
XXXX1069 0
XXXX1070 0
XXXX1071 1
XXXX1072 0
XXXX1073 1
XXXX1074 1
XXXX1075 1
XXXX1076 0
XXXX1077 0
XXXX1078 1
XXXX1079 0
XXXX1080 0
XXXX1081 1
XXXX1082 0
XXXX1083 0
XXXX1084 0
XXXX1085 0
XXXX1086 1
XXXX1087 0
XXXX1088 1
XXXX1089 1
XXXX1090 1
XXXX1091 1
XXXX1092 0
XXXX1093 1
XXXX1094 1
XXXX1095 1
XXXX1096 1
XXXX1097 0
XXXX1098 0
XXXX1099 1
XXXX1100 1
XXXX1101 1
XXXX1102 1
XXXX1103 1
XXXX1104 1
XXXX1105 1
XXXX1106 0
XXXX1107 1
XXXX1108 1
XXXX1109 0
XXXX1110 1
XXXX1111 1
XXXX1112 1
XXXX1113 1
XXXX1114 0
XXXX1115 1
XXXX1116 1
XXXX1117 1
XXXX1118 1
XXXX1119 1
XXXX1120 1
XXXX1121 0
XXXX1122 1
XXXX1123 1
XXXX1124 1
XXXX1125 1
XXXX1126 0
XXXX1127 1
XXXX1128 1
XXXX1129 1
XXXX1130 0
XXXX1131 0
XXXX1132 1
XXXX1133 0
XXXX1134 1
XXXX1135 0
XXXX1136 1
XXXX1137 1
XXXX1138 1
XXXX1139 1
XXXX1140 1
XXXX1141 1
XXXX1142 1
XXXX1143 1
XXXX1144 1
XXXX1145 1
XXXX1146 1
XXXX1147 0
XXXX1148 1
XXXX1149 1
XXXX1150 1
XXXX1151 1
XXXX1152 0
XXXX1153 1
XXXX1154 1
XXXX1155 1
XXXX1156 0
XXXX1157 1
XXXX1158 0
XXXX1159 1
XXXX1160 0
XXXX1161 0
XXXX1162 1
XXXX1163 1
XXXX1164 0
XXXX1165 1
XXXX1166 0
XXXX1167 0
XXXX1168 1
XXXX1169 0
XXXX1170 0
XXXX1171 1
XXXX1172 1
XXXX1173 1
XXXX1174 0
XXXX1175 1
XXXX1176 0
XXXX1177 0
XXXX1178 1
XXXX1179 0
XXXX1180 1
XXXX1181 0
XXXX1182 1
XXXX1183 1
XXXX1184 0
XXXX1185 1
XXXX1186 0
XXXX1187 0
XXXX1188 1
XXXX1189 1
XXXX1190 0
XXXX1191 1
XXXX1192 0
XXXX1193 0
XXXX1194 1
XXXX1195 0
XXXX1196 1
XXXX1197 1
XXXX1198 1
XXXX1199 1
XXXX1200 1
XXXX1201 1
XXXX1202 1
XXXX1203 1
XXXX1204 1
XXXX1205 1
XXXX1206 1
XXXX1207 1
XXXX1208 1
XXXX1209 1
XXXX1210 0
XXXX1211 1
XXXX1212 1
XXXX1213 1
XXXX1214 1
XXXX1215 1
XXXX1216 1
XXXX1217 0
XXXX1218 1
XXXX1219 1
XXXX1220 1
XXXX1221 1
XXXX1222 1
XXXX1223 1
XXXX1224 1
XXXX1225 1
XXXX1226 0
XXXX1227 1
XXXX1228 1
XXXX1229 1
XXXX1230 1
XXXX1231 0
XXXX1232 1
XXXX1233 0
XXXX1234 0
XXXX1235 1
XXXX1236 1
XXXX1237 1
XXXX1238 1
XXXX1239 1
XXXX1240 0
XXXX1241 0
XXXX1242 1
XXXX1243 0
XXXX1244 1
XXXX1245 1
XXXX1246 1
XXXX1247 1
XXXX1248 1
XXXX1249 0
XXXX1250 0
XXXX1251 1
XXXX1252 0
XXXX1253 0
XXXX1254 0
XXXX1255 1
XXXX1256 1
XXXX1257 0
XXXX1258 1
XXXX1259 0
XXXX1260 1
XXXX1261 0
XXXX1262 1
XXXX1263 1
XXXX1264 1
XXXX1265 0
XXXX1266 0
XXXX1267 1
XXXX1268 0
XXXX1269 1
XXXX1270 1
XXXX1271 0
XXXX1272 1
XXXX1273 0
XXXX1274 0
XXXX1275 0
XXXX1276 1
XXXX1277 1
XXXX1278 1
XXXX1279 1
XXXX1280 0
XXXX1281 1
XXXX1282 0
XXXX1283 1
XXXX1284 0
XXXX1285 1
XXXX1286 1
XXXX1287 1
XXXX1288 1
XXXX1289 1
XXXX1290 1
XXXX1291 1
XXXX1292 1
XXXX1293 1
XXXX1294 1
XXXX1295 0
XXXX1296 1
XXXX1297 0
XXXX1298 1
XXXX1299 0
XXXX1300 1
XXXX1301 0
XXXX1302 0
XXXX1303 1
XXXX1304 1
XXXX1305 0
XXXX1306 0
XXXX1307 0
XXXX1308 1
XXXX1309 1
XXXX1310 0
XXXX1311 1
XXXX1312 1
XXXX1313 1
XXXX1314 1
XXXX1315 1
XXXX1316 1
XXXX1317 1
XXXX1318 1
XXXX1319 1
XXXX1320 1
XXXX1321 0
XXXX1322 1
XXXX1323 1
XXXX1324 0
XXXX1325 1
XXXX1326 1
XXXX1327 0
XXXX1328 0
XXXX1329 1
XXXX1330 1
XXXX1331 1
XXXX1332 1
XXXX1333 0
XXXX1334 0
XXXX1335 1
XXXX1336 1
XXXX1337 1
XXXX1338 1
XXXX1339 1
XXXX1340 1
XXXX1341 0
XXXX1342 0
XXXX1343 1
XXXX1344 1
XXXX1345 1
XXXX1346 1
XXXX1347 0
XXXX1348 0
XXXX1349 1
XXXX1350 0
XXXX1351 1
XXXX1352 0
XXXX1353 1
XXXX1354 0
XXXX1355 1
XXXX1356 0
XXXX1357 0
XXXX1358 0
XXXX1359 0
XXXX1360 0
XXXX1361 1
XXXX1362 0
XXXX1363 0
XXXX1364 1
XXXX1365 1
XXXX1366 0
XXXX1367 1
XXXX1368 1
XXXX1369 0
XXXX1370 1
XXXX1371 0
XXXX1372 1
XXXX1373 0
XXXX1374 1
XXXX1375 1
XXXX1376 1
XXXX1377 0
XXXX1378 1
XXXX1379 0
XXXX1380 0
XXXX1381 0
XXXX1382 1
XXXX1383 0
XXXX1384 1
XXXX1385 0
XXXX1386 0
XXXX1387 1
XXXX1388 1
XXXX1389 0
XXXX1390 1
XXXX1391 1
XXXX1392 1
XXXX1393 0
XXXX1394 1
XXXX1395 1
XXXX1396 0
XXXX1397 0
XXXX1398 1
XXXX1399 1
XXXX1400 1
XXXX1401 1
XXXX1402 1
XXXX1403 1
XXXX1404 1
XXXX1405 1
XXXX1406 0
XXXX1407 1
XXXX1408 0
XXXX1409 0
XXXX1410 0
XXXX1411 1
XXXX1412 1
XXXX1413 1
XXXX1414 1
XXXX1415 0
XXXX1416 1
XXXX1417 1
XXXX1418 0
XXXX1419 1
XXXX1420 1
XXXX1421 1
XXXX1422 0
XXXX1423 0
XXXX1424 1
XXXX1425 1
XXXX1426 1
XXXX1427 0
XXXX1428 0
XXXX1429 0
XXXX1430 0
XXXX1431 0
XXXX1432 0
XXXX1433 0
XXXX1434 0
XXXX1435 1
XXXX1436 1
XXXX1437 0
XXXX1438 1
XXXX1439 1
XXXX1440 0
XXXX1441 1
XXXX1442 1
XXXX1443 0
XXXX1444 0
XXXX1445 0
XXXX1446 1
XXXX1447 1
XXXX1448 0
XXXX1449 1
XXXX1450 0
XXXX1451 0
XXXX1452 0
XXXX1453 1
XXXX1454 0
XXXX1455 1
XXXX1456 1
XXXX1457 1
XXXX1458 0
XXXX1459 0
XXXX1460 1
XXXX1461 0
XXXX1462 0
XXXX1463 0
XXXX1464 1
XXXX1465 1
XXXX1466 0
XXXX1467 1
XXXX1468 0
XXXX1469 1
XXXX1470 1
XXXX1471 1
XXXX1472 0
XXXX1473 0
XXXX1474 1
XXXX1475 0
XXXX1476 1
XXXX1477 1
XXXX1478 1
XXXX1479 0
XXXX1480 1
XXXX1481 1
XXXX1482 0
XXXX1483 1
XXXX1484 1
XXXX1485 0
XXXX1486 1
XXXX1487 1
XXXX1488 1
XXXX1489 0
XXXX1490 0
XXXX1491 0
XXXX1492 0
XXXX1493 0
XXXX1494 0
XXXX1495 0
XXXX1496 1
XXXX1497 1
XXXX1498 1
XXXX1499 1
XXXX1500 0
XXXX1501 1
XXXX1502 1
XXXX1503 1
XXXX1504 0
XXXX1505 1
XXXX1506 1
XXXX1507 1
XXXX1508 0
XXXX1509 0
XXXX1510 0
XXXX1511 0
XXXX1512 1
XXXX1513 1
XXXX1514 1
XXXX1515 0
XXXX1516 1
XXXX1517 1
XXXX1518 1
XXXX1519 1
XXXX1520 1
XXXX1521 0
XXXX1522 1
XXXX1523 0
XXXX1524 1
XXXX1525 1
XXXX1526 0
XXXX1527 1
XXXX1528 0
XXXX1529 1
XXXX1530 1
XXXX1531 0
XXXX1532 0
XXXX1533 0
XXXX1534 1
XXXX1535 1
XXXX1536 1
XXXX1537 0
XXXX1538 0
XXXX1539 0
XXXX1540 1
XXXX1541 1
XXXX1542 0
XXXX1543 1
XXXX1544 1
XXXX1545 0
XXXX1546 1
XXXX1547 1
XXXX1548 0
XXXX1549 0
XXXX1550 1
XXXX1551 0
XXXX1552 1
XXXX1553 0
XXXX1554 0
XXXX1555 1
XXXX1556 0
XXXX1557 0
XXXX1558 0
XXXX1559 1
XXXX1560 0
XXXX1561 0
XXXX1562 0
XXXX1563 0
XXXX1564 1
XXXX1565 1
XXXX1566 1
XXXX1567 1
XXXX1568 1
XXXX1569 1
XXXX1570 0
XXXX1571 1
XXXX1572 1
XXXX1573 1
XXXX1574 0
XXXX1575 1
XXXX1576 1
XXXX1577 0
XXXX1578 0
XXXX1579 1
XXXX1580 0
XXXX1581 0
XXXX1582 0
XXXX1583 0
XXXX1584 1
XXXX1585 1
XXXX1586 1
XXXX1587 1
XXXX1588 1
XXXX1589 1
XXXX1590 1
XXXX1591 1
XXXX1592 1
XXXX1593 0
XXXX1594 0
XXXX1595 1
XXXX1596 1
XXXX1597 1
XXXX1598 0
XXXX1599 1
XXXX1600 1
XXXX1601 0
XXXX1602 0
XXXX1603 1
XXXX1604 1
XXXX1605 0
XXXX1606 1
XXXX1607 0
XXXX1608 1
XXXX1609 1
XXXX1610 0
XXXX1611 1
XXXX1612 1
XXXX1613 0
XXXX1614 1
XXXX1615 1
XXXX1616 1
XXXX1617 1
XXXX1618 0
XXXX1619 1
XXXX1620 0
XXXX1621 0
XXXX1622 0
XXXX1623 1
XXXX1624 1
XXXX1625 1
XXXX1626 1
XXXX1627 1
XXXX1628 1
XXXX1629 0
XXXX1630 1
XXXX1631 0
XXXX1632 1
XXXX1633 0
XXXX1634 0
XXXX1635 1
XXXX1636 0
XXXX1637 1
XXXX1638 0
XXXX1639 1
XXXX1640 1
XXXX1641 0
XXXX1642 1
XXXX1643 1
XXXX1644 1
XXXX1645 0
XXXX1646 0
XXXX1647 1
XXXX1648 0
XXXX1649 1
XXXX1650 1
XXXX1651 0
XXXX1652 1
XXXX1653 1
XXXX1654 1
XXXX1655 1
XXXX1656 1
XXXX1657 1
XXXX1658 1
XXXX1659 0
XXXX1660 0
XXXX1661 0
XXXX1662 1
XXXX1663 1
XXXX1664 0
XXXX1665 1
XXXX1666 0
XXXX1667 1
XXXX1668 0
XXXX1669 1
XXXX1670 1
XXXX1671 1
XXXX1672 1
XXXX1673 1
XXXX1674 0
XXXX1675 0
XXXX1676 1
XXXX1677 1
XXXX1678 0
XXXX1679 0
XXXX1680 0
XXXX1681 0
XXXX1682 1
XXXX1683 1
XXXX1684 0
XXXX1685 0
XXXX1686 1
XXXX1687 1
XXXX1688 1
XXXX1689 1
XXXX1690 1
XXXX1691 0
XXXX1692 0
XXXX1693 0
XXXX1694 1
XXXX1695 1
XXXX1696 0
XXXX1697 1
XXXX1698 0
XXXX1699 1
XXXX1700 1
XXXX1701 1
XXXX1702 0
XXXX1703 1
XXXX1704 1
XXXX1705 1
XXXX1706 0
XXXX1707 0
XXXX1708 1
XXXX1709 1
XXXX1710 0
XXXX1711 0
XXXX1712 1
XXXX1713 0
XXXX1714 0
XXXX1715 1
XXXX1716 1
XXXX1717 1
XXXX1718 1
XXXX1719 0
XXXX1720 1
XXXX1721 1
XXXX1722 1
XXXX1723 0
XXXX1724 0
XXXX1725 0
XXXX1726 1
XXXX1727 1
XXXX1728 1
XXXX1729 1
XXXX1730 0
XXXX1731 1
XXXX1732 1
XXXX1733 1
XXXX1734 0
XXXX1735 1
XXXX1736 1
XXXX1737 1
XXXX1738 1
XXXX1739 1
XXXX1740 1
XXXX1741 1
XXXX1742 0
XXXX1743 1
XXXX1744 0
XXXX1745 1
XXXX1746 0
XXXX1747 0
XXXX1748 1
XXXX1749 1
XXXX1750 1
XXXX1751 1
XXXX1752 1
XXXX1753 1
XXXX1754 0
XXXX1755 0
XXXX1756 1
XXXX1757 1
XXXX1758 1
XXXX1759 0
XXXX1760 0
XXXX1761 0
XXXX1762 0
XXXX1763 1
XXXX1764 1
XXXX1765 1
XXXX1766 0
XXXX1767 1
XXXX1768 0
XXXX1769 0
XXXX1770 0
XXXX1771 1
XXXX1772 0
XXXX1773 0
XXXX1774 1
XXXX1775 1
XXXX1776 0
XXXX1777 1
XXXX1778 1
XXXX1779 1
XXXX1780 1
XXXX1781 0
XXXX1782 0
XXXX1783 0
XXXX1784 1
XXXX1785 1
XXXX1786 0
XXXX1787 1
XXXX1788 1
XXXX1789 0
XXXX1790 1
XXXX1791 0
XXXX1792 1
XXXX1793 0
XXXX1794 1
XXXX1795 0
XXXX1796 1
XXXX1797 0
XXXX1798 1
XXXX1799 0
XXXX1800 0
XXXX1801 0
XXXX1802 1
XXXX1803 1
XXXX1804 1
XXXX1805 1
XXXX1806 0
XXXX1807 1
XXXX1808 0
XXXX1809 1
XXXX1810 1
XXXX1811 1
XXXX1812 1
XXXX1813 0
XXXX1814 1
XXXX1815 1
XXXX1816 0
XXXX1817 1
XXXX1818 0
XXXX1819 0
XXXX1820 1
XXXX1821 1
XXXX1822 0
XXXX1823 1
XXXX1824 1
XXXX1825 1
XXXX1826 1
XXXX1827 1
XXXX1828 0
XXXX1829 1
XXXX1830 1
XXXX1831 1
XXXX1832 0
XXXX1833 1
XXXX1834 0
XXXX1835 0
XXXX1836 1
XXXX1837 0
XXXX1838 0
XXXX1839 0
XXXX1840 1
XXXX1841 1
XXXX1842 1
XXXX1843 0
XXXX1844 1
XXXX1845 0
XXXX1846 1
XXXX1847 1
XXXX1848 0
XXXX1849 1
XXXX1850 1
XXXX1851 1
XXXX1852 1
XXXX1853 1
XXXX1854 1
XXXX1855 1
XXXX1856 1
XXXX1857 1
XXXX1858 1
XXXX1859 1
XXXX1860 1
XXXX1861 1
XXXX1862 0
XXXX1863 1
XXXX1864 1
XXXX1865 1
XXXX1866 0
XXXX1867 1
XXXX1868 1
XXXX1869 1
XXXX1870 1
XXXX1871 1
XXXX1872 1
XXXX1873 1
XXXX1874 1
XXXX1875 0
XXXX1876 1
XXXX1877 1
XXXX1878 1
XXXX1879 1
XXXX1880 1
XXXX1881 1
XXXX1882 1
XXXX1883 1
XXXX1884 1
XXXX1885 1
XXXX1886 0
XXXX1887 0
XXXX1888 1
XXXX1889 1
XXXX1890 1
XXXX1891 0
XXXX1892 1
XXXX1893 0
XXXX1894 0
XXXX1895 1
XXXX1896 0
XXXX1897 1
XXXX1898 1
XXXX1899 1
XXXX1900 1
XXXX1901 1
XXXX1902 0
XXXX1903 1
XXXX1904 1
XXXX1905 1
XXXX1906 0
XXXX1907 0
XXXX1908 1
XXXX1909 0
XXXX1910 1
XXXX1911 0
XXXX1912 0
XXXX1913 0
XXXX1914 0
XXXX1915 1
XXXX1916 1
XXXX1917 1
XXXX1918 1
XXXX1919 0
XXXX1920 1
XXXX1921 1
XXXX1922 1
XXXX1923 0
XXXX1924 1
XXXX1925 1
XXXX1926 0
XXXX1927 0
XXXX1928 1
XXXX1929 1
XXXX1930 1
XXXX1931 1
XXXX1932 1
XXXX1933 1
XXXX1934 0
XXXX1935 0
XXXX1936 1
XXXX1937 1
XXXX1938 0
XXXX1939 1
XXXX1940 1
XXXX1941 1
XXXX1942 1
XXXX1943 0
XXXX1944 1
XXXX1945 0
XXXX1946 1
XXXX1947 0
XXXX1948 1
XXXX1949 1
XXXX1950 0
XXXX1951 1
XXXX1952 1
XXXX1953 1
XXXX1954 1
XXXX1955 1
XXXX1956 1
XXXX1957 1
XXXX1958 1
XXXX1959 1
XXXX1960 1
XXXX1961 0
XXXX1962 1
XXXX1963 0
XXXX1964 0
XXXX1965 0
XXXX1966 1
XXXX1967 0
XXXX1968 0
XXXX1969 1
XXXX1970 0
XXXX1971 0
XXXX1972 1
XXXX1973 1
XXXX1974 1
XXXX1975 1
XXXX1976 0
XXXX1977 1
XXXX1978 1
XXXX1979 0
XXXX1980 1
XXXX1981 1
XXXX1982 1
XXXX1983 0
XXXX1984 0
XXXX1985 0
XXXX1986 0
XXXX1987 1
XXXX1988 0
XXXX1989 1
XXXX1990 0
XXXX1991 1
XXXX1992 0
XXXX1993 0
XXXX1994 1
XXXX1995 1
XXXX1996 1
XXXX1997 1
XXXX1998 0
XXXX1999 1
XXXX2000 1
XXXX2001 0
XXXX2002 1
XXXX2003 1
XXXX2004 0
XXXX2005 0
XXXX2006 1
XXXX2007 1
XXXX2008 1
XXXX2009 0
XXXX2010 0
XXXX2011 1
XXXX2012 1
XXXX2013 1
XXXX2014 0
XXXX2015 0
XXXX2016 1
XXXX2017 1
XXXX2018 1
XXXX2019 1
XXXX2020 0
XXXX2021 1
XXXX2022 0
XXXX2023 1
XXXX2024 0
XXXX2025 0
XXXX2026 0
XXXX2027 0
XXXX2028 1
XXXX2029 0
XXXX2030 0
XXXX2031 1
XXXX2032 1
XXXX2033 1
XXXX2034 1
XXXX2035 0
XXXX2036 0
XXXX2037 0
XXXX2038 1
XXXX2039 0
XXXX2040 0
XXXX2041 0
XXXX2042 1
XXXX2043 1
XXXX2044 1
XXXX2045 1
XXXX2046 1
XXXX2047 1
XXXX2048 0
XXXX2049 0
XXXX2050 1
XXXX2051 1
XXXX2052 1
XXXX2053 1
XXXX2054 1
XXXX2055 1
XXXX2056 0
XXXX2057 1
XXXX2058 1
XXXX2059 1
XXXX2060 0
XXXX2061 1
XXXX2062 1
XXXX2063 0
XXXX2064 0
XXXX2065 1
XXXX2066 0
XXXX2067 0
XXXX2068 0
XXXX2069 1
XXXX2070 1
XXXX2071 0
XXXX2072 0
XXXX2073 0
XXXX2074 1
XXXX2075 1
XXXX2076 0
XXXX2077 0
XXXX2078 0
XXXX2079 1
XXXX2080 1
XXXX2081 1
XXXX2082 0
XXXX2083 1
XXXX2084 1
XXXX2085 0
XXXX2086 1
XXXX2087 1
XXXX2088 1
XXXX2089 1
XXXX2090 1
XXXX2091 1
XXXX2092 1
XXXX2093 1
XXXX2094 1
XXXX2095 1
XXXX2096 0
XXXX2097 1
XXXX2098 1
XXXX2099 1
XXXX2100 0
XXXX2101 1
XXXX2102 0
XXXX2103 1
XXXX2104 1
XXXX2105 0
XXXX2106 1
XXXX2107 1
XXXX2108 0
XXXX2109 1
XXXX2110 0
XXXX2111 0
XXXX2112 1
XXXX2113 1
XXXX2114 0
XXXX2115 0
XXXX2116 0
XXXX2117 0
XXXX2118 1
XXXX2119 0
XXXX2120 1
XXXX2121 1
XXXX2122 1
XXXX2123 1
XXXX2124 0
XXXX2125 1
XXXX2126 0
XXXX2127 0
XXXX2128 0
XXXX2129 1
XXXX2130 1
XXXX2131 1
XXXX2132 1
XXXX2133 1
XXXX2134 1
XXXX2135 0
XXXX2136 1
XXXX2137 0
XXXX2138 0
XXXX2139 1
XXXX2140 0
XXXX2141 1
XXXX2142 0
XXXX2143 1
XXXX2144 1
XXXX2145 1
XXXX2146 0
XXXX2147 1
XXXX2148 0
XXXX2149 1
XXXX2150 0
XXXX2151 0
XXXX2152 1
XXXX2153 0
XXXX2154 1
XXXX2155 1
XXXX2156 0
XXXX2157 1
XXXX2158 0
XXXX2159 0
XXXX2160 1
XXXX2161 1
XXXX2162 0
XXXX2163 1
XXXX2164 0
XXXX2165 1
XXXX2166 1
XXXX2167 1
XXXX2168 1
XXXX2169 1
XXXX2170 1
XXXX2171 1
XXXX2172 1
XXXX2173 1
XXXX2174 1
XXXX2175 0
XXXX2176 1
XXXX2177 0
XXXX2178 0
XXXX2179 1
XXXX2180 1
XXXX2181 0
XXXX2182 0
XXXX2183 1
XXXX2184 1
XXXX2185 1
XXXX2186 1
XXXX2187 1
XXXX2188 0
XXXX2189 1
XXXX2190 1
XXXX2191 0
XXXX2192 1
XXXX2193 1
XXXX2194 0
XXXX2195 0
XXXX2196 0
XXXX2197 1
XXXX2198 0
XXXX2199 1
XXXX2200 0
XXXX2201 1
XXXX2202 1
XXXX2203 1
XXXX2204 0
XXXX2205 1
XXXX2206 1
XXXX2207 1
XXXX2208 1
XXXX2209 1
XXXX2210 1
XXXX2211 0
XXXX2212 0
XXXX2213 0
XXXX2214 1
XXXX2215 1
XXXX2216 1
XXXX2217 1
XXXX2218 0
XXXX2219 1
XXXX2220 1
XXXX2221 1
XXXX2222 1
XXXX2223 1
XXXX2224 1
XXXX2225 0
XXXX2226 1
XXXX2227 0
XXXX2228 0
XXXX2229 0
XXXX2230 1
XXXX2231 1
XXXX2232 1
XXXX2233 0
XXXX2234 0
XXXX2235 0
XXXX2236 0
XXXX2237 1
XXXX2238 0
XXXX2239 1
XXXX2240 1
XXXX2241 1
XXXX2242 0
XXXX2243 1
XXXX2244 0
XXXX2245 1
XXXX2246 1
XXXX2247 1
XXXX2248 1
XXXX2249 0
XXXX2250 1
XXXX2251 0
XXXX2252 1
XXXX2253 1
XXXX2254 1
XXXX2255 1
XXXX2256 1
XXXX2257 0
XXXX2258 1
XXXX2259 1
XXXX2260 1
XXXX2261 0
XXXX2262 0
XXXX2263 1
XXXX2264 0
XXXX2265 0
XXXX2266 0
XXXX2267 1
XXXX2268 1
XXXX2269 1
XXXX2270 1
XXXX2271 0
XXXX2272 0
XXXX2273 1
XXXX2274 1
XXXX2275 0
XXXX2276 1
XXXX2277 0
XXXX2278 0
XXXX2279 0
XXXX2280 1
XXXX2281 0
XXXX2282 0
XXXX2283 0
XXXX2284 1
XXXX2285 0
XXXX2286 0
XXXX2287 0
XXXX2288 1
XXXX2289 0
XXXX2290 1
XXXX2291 1
XXXX2292 0
XXXX2293 0
XXXX2294 0
XXXX2295 0
XXXX2296 0
XXXX2297 1
XXXX2298 0
XXXX2299 0
XXXX2300 1
XXXX2301 0
XXXX2302 1
XXXX2303 1
XXXX2304 1
XXXX2305 1
XXXX2306 1
XXXX2307 1
XXXX2308 1
XXXX2309 1
XXXX2310 1
XXXX2311 0
XXXX2312 1
XXXX2313 0
XXXX2314 1
XXXX2315 1
XXXX2316 1
XXXX2317 0
XXXX2318 1
XXXX2319 1
XXXX2320 0
XXXX2321 1
XXXX2322 1
XXXX2323 1
XXXX2324 1
XXXX2325 1
XXXX2326 1
XXXX2327 0
XXXX2328 1
XXXX2329 1
XXXX2330 1
XXXX2331 1
XXXX2332 0
XXXX2333 0
XXXX2334 1
XXXX2335 0
XXXX2336 0
XXXX2337 1
XXXX2338 1
XXXX2339 0
XXXX2340 0
XXXX2341 1
XXXX2342 1
XXXX2343 1
XXXX2344 1
XXXX2345 1
XXXX2346 0
XXXX2347 1
XXXX2348 1
XXXX2349 1
XXXX2350 1
XXXX2351 0
XXXX2352 1
XXXX2353 1
XXXX2354 0
XXXX2355 1
XXXX2356 0
XXXX2357 1
XXXX2358 0
XXXX2359 1
XXXX2360 1
XXXX2361 0
XXXX2362 0
XXXX2363 1
XXXX2364 1
XXXX2365 1
XXXX2366 1
XXXX2367 1
XXXX2368 1
XXXX2369 0
XXXX2370 1
XXXX2371 0
XXXX2372 1
XXXX2373 1
XXXX2374 1
XXXX2375 0
XXXX2376 1
XXXX2377 1
XXXX2378 1
XXXX2379 0
XXXX2380 0
XXXX2381 1
XXXX2382 0
XXXX2383 1
XXXX2384 1
XXXX2385 1
XXXX2386 1
XXXX2387 1
XXXX2388 1
XXXX2389 1
XXXX2390 0
XXXX2391 1
XXXX2392 1
XXXX2393 0
XXXX2394 1
XXXX2395 1
XXXX2396 0
XXXX2397 1
XXXX2398 1
XXXX2399 1
XXXX2400 0
XXXX2401 1
XXXX2402 1
XXXX2403 1
XXXX2404 1
XXXX2405 1
XXXX2406 1
XXXX2407 1
XXXX2408 1
XXXX2409 0
XXXX2410 1
XXXX2411 0
XXXX2412 1
XXXX2413 1
XXXX2414 0
XXXX2415 0
XXXX2416 1
XXXX2417 0
XXXX2418 1
XXXX2419 1
XXXX2420 1
XXXX2421 1
XXXX2422 1
XXXX2423 1
XXXX2424 1
XXXX2425 1
XXXX2426 0
XXXX2427 1
XXXX2428 1
XXXX2429 0
XXXX2430 0
XXXX2431 1
XXXX2432 1
XXXX2433 0
XXXX2434 1
XXXX2435 1
XXXX2436 1
XXXX2437 0
XXXX2438 0
XXXX2439 1
XXXX2440 0
XXXX2441 0
XXXX2442 1
XXXX2443 1
XXXX2444 0
XXXX2445 0
XXXX2446 1
XXXX2447 0
XXXX2448 0
XXXX2449 0
XXXX2450 1
XXXX2451 0
XXXX2452 1
XXXX2453 1
XXXX2454 1
XXXX2455 1
XXXX2456 0
XXXX2457 1
XXXX2458 0
XXXX2459 1
XXXX2460 1
XXXX2461 0
XXXX2462 0
XXXX2463 1
XXXX2464 1
XXXX2465 1
XXXX2466 1
XXXX2467 1
XXXX2468 1
XXXX2469 0
XXXX2470 1
XXXX2471 0
XXXX2472 1
XXXX2473 1
XXXX2474 1
XXXX2475 1
XXXX2476 1
XXXX2477 1
XXXX2478 1
XXXX2479 1
XXXX2480 0
XXXX2481 0
XXXX2482 0
XXXX2483 1
XXXX2484 0
XXXX2485 1
XXXX2486 1
YYYYYYY0 1
YYYYYYY1 1
YYYYYYY2 1
YYYYYYY3 1
YYYYYYY4 1
YYYYYYY5 1
YYYYYYY6 1
YYYYYYY7 1
YYYYYYY8 1
YYYYYYY9 1
YYYYYY10 1
YYYYYY11 1
YYYYYY12 1
YYYYYY13 1
YYYYYY14 1
YYYYYY15 1
YYYYYY16 1
YYYYYY17 1
YYYYYY18 1
YYYYYY19 1
YYYYYY20 1
YYYYYY21 1
YYYYYY22 1
YYYYYY23 1
YYYYYY24 1
YYYYYY25 1
YYYYYY26 1
YYYYYY27 1
YYYYYY28 1
YYYYYY29 1
YYYYYY30 1
YYYYYY31 1
YYYYYY32 1
YYYYYY33 1
YYYYYY34 1
YYYYYY35 1
YYYYYY36 1
YYYYYY37 1
YYYYYY38 1
YYYYYY39 1
YYYYYY40 1
YYYYYY41 1
YYYYYY42 1
YYYYYY43 1
YYYYYY44 1
YYYYYY45 1
YYYYYY46 1
YYYYYY47 1
YYYYYY48 1
YYYYYY49 1
